
Gurobi 7.0.1 (win64) logging started 01/29/18 01:49:14

Set parameter TimeLimit to value 3600
Set parameter Threads to value 4

Gurobi Optimizer version 7.0.1 build v7.0.1rc0 (win64)
Copyright (c) 2016, Gurobi Optimization, Inc.

Read LP format model from file waterstop_5_180114.lp
Reading time = 0.21 seconds
Objective: 47832 rows, 16866 columns, 185916 nonzeros
Optimize a model with 47832 rows, 16866 columns and 185916 nonzeros
Variable types: 108 continuous, 16758 integer (0 binary)
Coefficient statistics:
  Matrix range     [3e-01, 1e+02]
  Objective range  [1e+00, 1e+00]
  Bounds range     [1e+00, 1e+00]
  RHS range        [1e+00, 1e+02]
Presolve removed 21865 rows and 3451 columns
Presolve time: 1.32s
Presolved: 25967 rows, 13415 columns, 103938 nonzeros
Variable types: 66 continuous, 13349 integer (13349 binary)

Root relaxation: objective 0.000000e+00, 5078 iterations, 1.35 seconds
Total elapsed time = 5.26s
Total elapsed time = 11.08s

    Nodes    |    Current Node    |     Objective Bounds      |     Work
 Expl Unexpl |  Obj  Depth IntInf | Incumbent    BestBd   Gap | It/Node Time

     0     0    0.00000    0   51          -    0.00000      -     -   13s
     0     0    0.00000    0   68          -    0.00000      -     -   15s
     0     0    0.00000    0  114          -    0.00000      -     -   16s
     0     0    0.00000    0  114          -    0.00000      -     -   16s
     0     0    0.00000    0   41          -    0.00000      -     -   20s
     0     0    0.00000    0   47          -    0.00000      -     -   20s
     0     0    0.00000    0  127          -    0.00000      -     -   25s
     0     0    0.00000    0  133          -    0.00000      -     -   27s
H    0     0                       0.0000000    0.00000      -     -   31s
     0     0    0.00000    0   84    0.00000    0.00000      -     -   31s

Cutting planes:
  Clique: 3
  MIR: 2
  StrongCG: 4
  GUB cover: 2
  Zero half: 10

Explored 0 nodes (80094 simplex iterations) in 31.45 seconds
Thread count was 4 (of 20 available processors)

Solution count 1: 0 
Pool objective bound 0

Optimal solution found (tolerance 1.00e-04)
Best objective 0.000000000000e+00, best bound 0.000000000000e+00, gap -

Wrote result file 'waterstop_5_180114.sol'

